32 177
27
3 3 12 160
3 4 17 145
3 5 3 169
3 6 29 168
3 7 12 167
3 8 0 129
3 9 0 137
3 10 1 153
3 11 29 139
3 12 9 108
13 3 15 171
3 14 0 163
3 15 6 159
3 18 29 150
3 22 9 152
3 23 25 137
24 3 0 149
3 25 17 120
27 3 5 174
4 3 0 146
4 4 8 145
4 5 4 154
4 6 12 153
4 7 16 164
4 10 20 153
4 11 24 160
4 18 28 121
